(set-logic ALL)
(declare-fun var0 () String)
(assert (str.in_re var0 (re.++ (re.union (re.* (str.to_re "000")) (re.* (str.to_re "111"))) (re.++ (re.+ (re.union (str.to_re "2") (str.to_re "333"))) (re.++ (re.union (re.* (str.to_re "444")) (re.* (str.to_re "555"))) (re.++ (re.+ (re.* (str.to_re "66"))) (re.++ (re.+ (re.+ (str.to_re "7"))) (re.++ (re.+ (re.* (str.to_re "888"))) (re.++ (re.* (re.union (str.to_re "9") (str.to_re "a"))) (re.++ (re.union (re.* (str.to_re "b")) (re.* (str.to_re "ccc"))) (re.++ (re.* (re.union (str.to_re "dd") (str.to_re "eee"))) (re.++ (re.+ (re.* (str.to_re "fff"))) (re.* (re.+ (str.to_re "gg")))))))))))))))
(assert (not (str.in_re var0 (re.++ (re.+ (re.+ (str.to_re "0"))) (re.++ (re.* (re.union (str.to_re "111") (str.to_re "2"))) (re.++ (re.+ (re.union (str.to_re "3") (str.to_re "444"))) (re.++ (re.+ (re.union (str.to_re "555") (str.to_re "666"))) (re.++ (re.+ (re.* (str.to_re "77"))) (re.++ (re.* (re.union (str.to_re "8") (str.to_re "99"))) (re.++ (re.+ (re.* (str.to_re "aa"))) (re.++ (re.* (re.+ (str.to_re "bb"))) (re.++ (re.union (re.union (str.to_re "cc") (str.to_re "d")) (re.union (str.to_re "eee") (str.to_re "fff"))) (re.++ (re.* (re.* (str.to_re "g"))) (re.+ (re.* (str.to_re "h"))))))))))))))))
(check-sat)